(set-info :smt-lib-version 2.6)
(set-logic QF_NIA)
(set-info :source |
Generated by: Cristina Borralleras, Daniel Larraz, Albert Oliveras, Enric Rodriguez-Carbonell, Albert Rubio
Generated on: 2017-04-27
Generator: VeryMax
Application: Termination proving
Target solver: barcelogic
|)
(set-info :license "https://creativecommons.org/licenses/by/4.0/")
(set-info :category "industrial")
(set-info :status unknown)
(declare-fun Nl2arg11 () Int)
(declare-fun Nl2arg12 () Int)
(declare-fun lam0n0 () Int)
(declare-fun lam0n3 () Int)
(declare-fun lam0n4 () Int)
(declare-fun Nl2CT1 () Int)
(declare-fun Nl2CT2 () Int)
(declare-fun lam0n1 () Int)
(declare-fun lam0n2 () Int)
(declare-fun lam1n0 () Int)
(declare-fun lam1n3 () Int)
(declare-fun lam1n4 () Int)
(declare-fun lam1n1 () Int)
(declare-fun lam1n2 () Int)
(declare-fun lam2n0 () Int)
(declare-fun lam2n3 () Int)
(declare-fun lam2n4 () Int)
(declare-fun lam2n1 () Int)
(declare-fun lam2n2 () Int)
(declare-fun lam3n0 () Int)
(declare-fun lam3n1 () Int)
(declare-fun lam3n3 () Int)
(declare-fun lam3n4 () Int)
(declare-fun lam3n2 () Int)
(declare-fun lam4n0 () Int)
(declare-fun lam4n1 () Int)
(declare-fun lam4n3 () Int)
(declare-fun lam4n4 () Int)
(declare-fun lam4n2 () Int)
(declare-fun lam5n0 () Int)
(declare-fun lam5n1 () Int)
(declare-fun lam5n3 () Int)
(declare-fun lam5n4 () Int)
(declare-fun lam5n2 () Int)
(declare-fun lam6n0 () Int)
(declare-fun lam6n1 () Int)
(declare-fun lam6n2 () Int)
(declare-fun lam6n3 () Int)
(declare-fun lam6n4 () Int)
(declare-fun lam6n5 () Int)
(declare-fun lam7n0 () Int)
(declare-fun lam7n1 () Int)
(declare-fun lam7n2 () Int)
(declare-fun lam7n3 () Int)
(declare-fun lam7n4 () Int)
(declare-fun lam7n5 () Int)
(declare-fun lam8n0 () Int)
(declare-fun lam8n1 () Int)
(declare-fun lam8n2 () Int)
(declare-fun lam8n3 () Int)
(declare-fun lam8n4 () Int)
(declare-fun lam8n5 () Int)
(declare-fun lam9n0 () Int)
(declare-fun lam9n1 () Int)
(declare-fun lam9n2 () Int)
(declare-fun lam9n3 () Int)
(declare-fun lam10n0 () Int)
(declare-fun lam10n1 () Int)
(declare-fun lam10n2 () Int)
(declare-fun lam10n3 () Int)
(declare-fun undef16 () Int)
(declare-fun undef15 () Int)
(declare-fun arg1 () Int)
(declare-fun lam11n0 () Int)
(declare-fun lam11n1 () Int)
(declare-fun lam12n0 () Int)
(declare-fun lam12n1 () Int)
(assert ( and ( <= ( - 1 ) Nl2arg11 ) ( <= Nl2arg11 1 ) ( <= ( - 1 ) Nl2arg12 ) ( <= Nl2arg12 1 ) ))
(assert ( or ( and ( >= lam0n0 0 ) ( >= lam0n3 0 ) ( >= lam0n4 0 ) ( > ( + ( * 3 lam0n0 ) ( * Nl2CT1 lam0n3 ) ( * Nl2CT2 lam0n4 ) ( - 1 ) ) 0 ) ( = ( + ( * ( - 1 ) lam0n0 ) ( * 1 lam0n1 ) ( * 1 lam0n2 ) ( * Nl2arg11 lam0n3 ) ( * Nl2arg12 lam0n4 ) ) 0 ) ( = ( * ( - 5 ) lam0n1 ) 0 ) ( = ( * ( - 5 ) lam0n2 ) 0 ) ) ( and ( >= lam1n0 0 ) ( >= lam1n3 0 ) ( >= lam1n4 0 ) ( > ( + ( * 3 lam1n0 ) ( * Nl2CT1 lam1n3 ) ( * Nl2CT2 lam1n4 ) ( - 1 Nl2CT1 ) ) 0 ) ( = ( + ( * ( - 1 ) lam1n0 ) ( * 1 lam1n1 ) ( * 1 lam1n2 ) ( * Nl2arg11 lam1n3 ) ( * Nl2arg12 lam1n4 ) ( - ( + 0 Nl2arg11 ) ) ) 0 ) ( = ( * ( - 5 ) lam1n1 ) 0 ) ( = ( * ( - 5 ) lam1n2 ) 0 ) ) ))
(assert ( or ( and ( >= lam0n0 0 ) ( >= lam0n3 0 ) ( >= lam0n4 0 ) ( > ( + ( * 3 lam0n0 ) ( * Nl2CT1 lam0n3 ) ( * Nl2CT2 lam0n4 ) ( - 1 ) ) 0 ) ( = ( + ( * ( - 1 ) lam0n0 ) ( * 1 lam0n1 ) ( * 1 lam0n2 ) ( * Nl2arg11 lam0n3 ) ( * Nl2arg12 lam0n4 ) ) 0 ) ( = ( * ( - 5 ) lam0n1 ) 0 ) ( = ( * ( - 5 ) lam0n2 ) 0 ) ) ( and ( >= lam2n0 0 ) ( >= lam2n3 0 ) ( >= lam2n4 0 ) ( > ( + ( * 3 lam2n0 ) ( * Nl2CT1 lam2n3 ) ( * Nl2CT2 lam2n4 ) ( - 1 Nl2CT2 ) ) 0 ) ( = ( + ( * ( - 1 ) lam2n0 ) ( * 1 lam2n1 ) ( * 1 lam2n2 ) ( * Nl2arg11 lam2n3 ) ( * Nl2arg12 lam2n4 ) ( - ( + 0 Nl2arg12 ) ) ) 0 ) ( = ( * ( - 5 ) lam2n1 ) 0 ) ( = ( * ( - 5 ) lam2n2 ) 0 ) ) ))
(assert ( or ( and ( >= lam3n0 0 ) ( >= lam3n1 0 ) ( >= lam3n3 0 ) ( >= lam3n4 0 ) ( > ( + ( * 1 lam3n0 ) ( * 3 lam3n1 ) ( * Nl2CT1 lam3n3 ) ( * Nl2CT2 lam3n4 ) ( - 1 ) ) 0 ) ( = ( + ( * ( - 1 ) lam3n0 ) ( * ( - 1 ) lam3n1 ) ( * 1 lam3n2 ) ( * Nl2arg11 lam3n3 ) ( * Nl2arg12 lam3n4 ) ) 0 ) ( = ( * ( - 5 ) lam3n2 ) 0 ) ( = ( * 5 lam3n0 ) 0 ) ) ( and ( >= lam4n0 0 ) ( >= lam4n1 0 ) ( >= lam4n3 0 ) ( >= lam4n4 0 ) ( > ( + ( * 1 lam4n0 ) ( * 3 lam4n1 ) ( * Nl2CT1 lam4n3 ) ( * Nl2CT2 lam4n4 ) ( - 1 Nl2CT1 ) ) 0 ) ( = ( + ( * ( - 1 ) lam4n0 ) ( * ( - 1 ) lam4n1 ) ( * 1 lam4n2 ) ( * Nl2arg11 lam4n3 ) ( * Nl2arg12 lam4n4 ) ( - ( + 0 Nl2arg11 ) ) ) 0 ) ( = ( * ( - 5 ) lam4n2 ) 0 ) ( = ( * 5 lam4n0 ) 0 ) ) ))
(assert ( or ( and ( >= lam3n0 0 ) ( >= lam3n1 0 ) ( >= lam3n3 0 ) ( >= lam3n4 0 ) ( > ( + ( * 1 lam3n0 ) ( * 3 lam3n1 ) ( * Nl2CT1 lam3n3 ) ( * Nl2CT2 lam3n4 ) ( - 1 ) ) 0 ) ( = ( + ( * ( - 1 ) lam3n0 ) ( * ( - 1 ) lam3n1 ) ( * 1 lam3n2 ) ( * Nl2arg11 lam3n3 ) ( * Nl2arg12 lam3n4 ) ) 0 ) ( = ( * ( - 5 ) lam3n2 ) 0 ) ( = ( * 5 lam3n0 ) 0 ) ) ( and ( >= lam5n0 0 ) ( >= lam5n1 0 ) ( >= lam5n3 0 ) ( >= lam5n4 0 ) ( > ( + ( * 1 lam5n0 ) ( * 3 lam5n1 ) ( * Nl2CT1 lam5n3 ) ( * Nl2CT2 lam5n4 ) ( - 1 Nl2CT2 ) ) 0 ) ( = ( + ( * ( - 1 ) lam5n0 ) ( * ( - 1 ) lam5n1 ) ( * 1 lam5n2 ) ( * Nl2arg11 lam5n3 ) ( * Nl2arg12 lam5n4 ) ( - ( + 0 Nl2arg12 ) ) ) 0 ) ( = ( * ( - 5 ) lam5n2 ) 0 ) ( = ( * 5 lam5n0 ) 0 ) ) ))
(assert ( or ( and ( >= lam6n0 0 ) ( >= lam6n1 0 ) ( >= lam6n2 0 ) ( >= lam6n3 0 ) ( >= lam6n4 0 ) ( >= lam6n5 0 ) ( > ( + ( * 1 lam6n0 ) ( * 1 lam6n1 ) ( * 3 lam6n2 ) ( * ( - 4 ) lam6n3 ) ( * Nl2CT1 lam6n4 ) ( * Nl2CT2 lam6n5 ) ( - 1 ) ) 0 ) ( = ( + ( * ( - 1 ) lam6n0 ) ( * ( - 1 ) lam6n1 ) ( * ( - 1 ) lam6n2 ) ( * 1 lam6n3 ) ( * Nl2arg11 lam6n4 ) ( * Nl2arg12 lam6n5 ) ) 0 ) ( = ( * 5 lam6n0 ) 0 ) ( = ( + ( * 5 lam6n1 ) ( * ( - 5 ) lam6n3 ) ) 0 ) ) ( and ( >= lam7n0 0 ) ( >= lam7n1 0 ) ( >= lam7n2 0 ) ( >= lam7n3 0 ) ( >= lam7n4 0 ) ( >= lam7n5 0 ) ( > ( + ( * 1 lam7n0 ) ( * 1 lam7n1 ) ( * 3 lam7n2 ) ( * ( - 4 ) lam7n3 ) ( * Nl2CT1 lam7n4 ) ( * Nl2CT2 lam7n5 ) ( - 1 ( + Nl2CT1 ( * Nl2arg11 ( - 1 ) ) ) ) ) 0 ) ( = ( + ( * ( - 1 ) lam7n0 ) ( * ( - 1 ) lam7n1 ) ( * ( - 1 ) lam7n2 ) ( * 1 lam7n3 ) ( * Nl2arg11 lam7n4 ) ( * Nl2arg12 lam7n5 ) ( - ( + 0 ( * Nl2arg11 1 ) ) ) ) 0 ) ( = ( * 5 lam7n0 ) 0 ) ( = ( + ( * 5 lam7n1 ) ( * ( - 5 ) lam7n3 ) ) 0 ) ) ))
(assert ( or ( and ( >= lam6n0 0 ) ( >= lam6n1 0 ) ( >= lam6n2 0 ) ( >= lam6n3 0 ) ( >= lam6n4 0 ) ( >= lam6n5 0 ) ( > ( + ( * 1 lam6n0 ) ( * 1 lam6n1 ) ( * 3 lam6n2 ) ( * ( - 4 ) lam6n3 ) ( * Nl2CT1 lam6n4 ) ( * Nl2CT2 lam6n5 ) ( - 1 ) ) 0 ) ( = ( + ( * ( - 1 ) lam6n0 ) ( * ( - 1 ) lam6n1 ) ( * ( - 1 ) lam6n2 ) ( * 1 lam6n3 ) ( * Nl2arg11 lam6n4 ) ( * Nl2arg12 lam6n5 ) ) 0 ) ( = ( * 5 lam6n0 ) 0 ) ( = ( + ( * 5 lam6n1 ) ( * ( - 5 ) lam6n3 ) ) 0 ) ) ( and ( >= lam8n0 0 ) ( >= lam8n1 0 ) ( >= lam8n2 0 ) ( >= lam8n3 0 ) ( >= lam8n4 0 ) ( >= lam8n5 0 ) ( > ( + ( * 1 lam8n0 ) ( * 1 lam8n1 ) ( * 3 lam8n2 ) ( * ( - 4 ) lam8n3 ) ( * Nl2CT1 lam8n4 ) ( * Nl2CT2 lam8n5 ) ( - 1 ( + Nl2CT2 ( * Nl2arg12 ( - 1 ) ) ) ) ) 0 ) ( = ( + ( * ( - 1 ) lam8n0 ) ( * ( - 1 ) lam8n1 ) ( * ( - 1 ) lam8n2 ) ( * 1 lam8n3 ) ( * Nl2arg11 lam8n4 ) ( * Nl2arg12 lam8n5 ) ( - ( + 0 ( * Nl2arg12 1 ) ) ) ) 0 ) ( = ( * 5 lam8n0 ) 0 ) ( = ( + ( * 5 lam8n1 ) ( * ( - 5 ) lam8n3 ) ) 0 ) ) ))
(assert ( and ( <= ( * ( - 1 ) undef16 ) 0 ) ( <= ( + 1 ( * ( - 1 ) undef15 ) ) 0 ) ( not ( <= ( + ( - 2 ) arg1 ) 0 ) ) ( = ( + arg1 ( * ( - 1 ) undef16 ) ) 0 ) ( <= ( + Nl2CT1 ( * ( + 0 Nl2arg11 ) arg1 ) ) 0 ) ( <= ( + Nl2CT2 ( * ( + 0 Nl2arg12 ) arg1 ) ) 0 ) ))
(assert ( or ( or ( and ( >= lam11n0 0 ) ( >= lam11n1 0 ) ( > ( + ( * Nl2CT1 lam11n0 ) ( * Nl2CT2 lam11n1 ) ( - 1 ) ) 0 ) ( = ( + ( * Nl2arg11 lam11n0 ) ( * Nl2arg12 lam11n1 ) ) 0 ) ) ( and ( >= lam12n0 0 ) ( >= lam12n1 0 ) ( > ( + ( * Nl2CT1 lam12n0 ) ( * Nl2CT2 lam12n1 ) 3 ) 0 ) ( = ( + ( * Nl2arg11 lam12n0 ) ( * Nl2arg12 lam12n1 ) ( - 1 ) ) 0 ) ) ) ( and ( and ( <= ( * ( - 1 ) undef16 ) 0 ) ( <= ( + 1 ( * ( - 1 ) undef15 ) ) 0 ) ( not ( <= ( + ( - 2 ) arg1 ) 0 ) ) ( = ( + arg1 ( * ( - 1 ) undef16 ) ) 0 ) ( <= ( + Nl2CT1 ( * ( + 0 Nl2arg11 ) arg1 ) ) 0 ) ( <= ( + Nl2CT2 ( * ( + 0 Nl2arg12 ) arg1 ) ) 0 ) ) ( or ( and ( >= lam0n0 0 ) ( >= lam0n3 0 ) ( >= lam0n4 0 ) ( > ( + ( * 3 lam0n0 ) ( * Nl2CT1 lam0n3 ) ( * Nl2CT2 lam0n4 ) ( - 1 ) ) 0 ) ( = ( + ( * ( - 1 ) lam0n0 ) ( * 1 lam0n1 ) ( * 1 lam0n2 ) ( * Nl2arg11 lam0n3 ) ( * Nl2arg12 lam0n4 ) ) 0 ) ( = ( * ( - 5 ) lam0n1 ) 0 ) ( = ( * ( - 5 ) lam0n2 ) 0 ) ) ( and ( >= lam3n0 0 ) ( >= lam3n1 0 ) ( >= lam3n3 0 ) ( >= lam3n4 0 ) ( > ( + ( * 1 lam3n0 ) ( * 3 lam3n1 ) ( * Nl2CT1 lam3n3 ) ( * Nl2CT2 lam3n4 ) ( - 1 ) ) 0 ) ( = ( + ( * ( - 1 ) lam3n0 ) ( * ( - 1 ) lam3n1 ) ( * 1 lam3n2 ) ( * Nl2arg11 lam3n3 ) ( * Nl2arg12 lam3n4 ) ) 0 ) ( = ( * ( - 5 ) lam3n2 ) 0 ) ( = ( * 5 lam3n0 ) 0 ) ) ( and ( >= lam6n0 0 ) ( >= lam6n1 0 ) ( >= lam6n2 0 ) ( >= lam6n3 0 ) ( >= lam6n4 0 ) ( >= lam6n5 0 ) ( > ( + ( * 1 lam6n0 ) ( * 1 lam6n1 ) ( * 3 lam6n2 ) ( * ( - 4 ) lam6n3 ) ( * Nl2CT1 lam6n4 ) ( * Nl2CT2 lam6n5 ) ( - 1 ) ) 0 ) ( = ( + ( * ( - 1 ) lam6n0 ) ( * ( - 1 ) lam6n1 ) ( * ( - 1 ) lam6n2 ) ( * 1 lam6n3 ) ( * Nl2arg11 lam6n4 ) ( * Nl2arg12 lam6n5 ) ) 0 ) ( = ( * 5 lam6n0 ) 0 ) ( = ( + ( * 5 lam6n1 ) ( * ( - 5 ) lam6n3 ) ) 0 ) ) ) ) ))
(check-sat)
(exit)
